(declare-const a Real)
(declare-const b Real)
(declare-const c Real)
(assert (= (+ a b c) 3))
(assert (> a 0))
(assert (> b 0))
(assert (> c 0))
(assert (not (<= (+ (* (pow (* (pow a (* 33886208 c)) (pow (* b (pow a 3)) (* 9175040 b))) (pow (+ (* 8471552 c) (* 9175040 b)) -1)) (+ (* -9175040 b) (* -8471552 c))) (* -49807360 a (pow c 4)) (* -49807360 b (pow a 4)) (* -48317440 c (pow b 4)) (* -9961472 a (pow b 4)) (* -9961472 b (pow c 4)) (* -9175040 (pow a 2) (pow c 3)) (* 6553600 (pow b 3) (pow c 2)) (* 9175040 (pow a 2) (pow b 3)) (* 9175040 (pow b 2) (pow c 3)) (* 24903680 (pow a 3) (pow c 2)) (* 829440 c (pow a 2) (pow b 2)) (* 44040192 a b (pow c 3)) (* 49999872 a c (pow b 3)) (* 49999872 b c (pow a 3))) 0)))
(check-sat)
(get-model)
(exit)